NAME : block_28.346062.tour
COMMENT : Length = 346062
COMMENT : Found by LKH-3 [Keld Helsgaun] Mon Feb  2 23:13:33 2026
TYPE : TOUR
DIMENSION : 100
TOUR_SECTION
33
45
57
68
79
89
97
90
80
69
58
46
34
22
13
23
35
47
59
70
81
91
92
82
71
60
48
36
24
25
37
49
61
72
83
84
73
62
50
38
26
14
15
27
39
51
63
74
2
100
1
52
40
28
16
7
4
8
17
29
41
53
64
75
85
93
98
99
94
86
76
65
54
42
30
18
9
5
3
6
10
19
31
43
55
66
77
87
95
96
88
78
67
56
44
32
20
11
12
21
-1
EOF
